InboundTrucks  = 80;
OutboundTrucks = 40;
InboundDoors   = 16;
OutboundDoors  = 8;
ReleaseTime    = [23,10,215,125,153,236,54,7,199,152,211,66,156,60,185,5,198,63,88,164,24,191,229,33,30,26,142,189,229,89,146,66,150,97,113,51,126,191,26,76,240,18,116,152,116,66,156,45,30,4,233,214,96,206,153,35,123,131,222,95,17,160,162,212,123,72,172,111,198,86,161,82,13,208,58,44,188,223,11,163];
UnloadTime     = [1,12,4,3,8,12,1,4,11,12,3,3,4,16,11,10,6,8,2,25,10,17,5,1,2,13,10,17,2,5,8,12,3,3,15,23,3,5,12,1,23,9,5,3,2,1,6,4,17,1,18,19,11,1,4,4,10,11,8,25,9,18,2,20,5,3,6,11,19,5,9,5,4,4,3,19,11,11,11,4];
LoadTime       = [5,9,12,6,5,11,14,11,4,5,5,9,8,3,2,2,9,13,4,12,11,3,6,13,1,12,4,6,1,2,11,1,3,18,20,10,7,4,4,2];
TransferTime   = [| 0,0,8,0,0,5,4,0,0,0,0,0,0,0,0,0,7,0,0,0,0,0,0,0,0,0,0,5,0,0,3,0,0,0,0,5,0,0,2,0 | 3,8,0,0,0,5,1,0,0,0,0,0,0,2,0,0,6,0,4,0,0,0,0,0,0,0,0,0,0,4,0,0,2,0,0,0,0,0,0,0 | 0,0,0,0,0,0,0,0,0,0,0,0,0,5,0,0,0,0,0,0,0,0,0,0,0,0,0,0,0,0,2,1,0,0,0,0,0,0,0,0 | 2,0,0,0,0,0,0,0,5,0,5,5,0,0,8,0,0,0,0,0,0,7,0,0,0,1,0,0,6,0,0,0,0,0,0,2,0,0,0,5 | 0,0,0,3,0,0,0,2,0,0,0,4,0,0,0,0,0,0,0,0,0,0,0,0,0,0,0,1,0,0,0,0,5,0,0,0,0,0,0,1 | 0,0,1,3,2,0,0,0,8,0,0,0,4,1,0,0,0,0,0,0,5,0,0,0,0,0,4,2,0,0,3,0,0,0,0,0,0,0,0,0 | 6,0,0,0,0,0,0,0,5,0,5,0,0,0,0,0,0,0,0,2,2,0,0,0,0,0,0,0,0,0,2,4,0,0,0,0,0,0,0,0 | 2,0,0,3,0,0,0,0,2,0,0,0,0,0,0,5,0,0,0,3,0,15,0,0,0,2,0,0,0,0,5,0,0,0,0,0,0,0,0,0 | 0,0,0,0,0,0,0,0,0,0,2,1,0,7,0,0,0,1,0,0,0,0,4,5,0,0,0,0,5,3,0,0,1,0,0,0,0,0,0,0 | 1,0,0,0,0,0,0,0,0,0,0,8,0,5,0,0,0,0,0,0,0,0,0,0,0,0,0,0,0,0,0,3,0,0,0,0,0,0,0,5 | 0,0,0,0,0,13,1,0,3,3,0,0,0,0,0,1,0,0,0,0,0,0,0,0,0,5,0,0,1,0,0,4,0,0,0,0,0,0,1,0 | 0,0,4,0,1,0,0,0,0,0,0,0,5,3,0,0,0,0,4,0,5,0,0,5,6,0,0,0,8,0,0,0,0,0,0,0,0,0,0,0 | 0,0,6,0,0,0,4,0,0,0,0,0,0,0,0,0,0,0,0,0,0,0,0,0,0,0,0,5,0,0,0,4,0,0,0,0,1,0,0,0 | 0,1,0,0,5,5,0,0,14,0,2,4,0,0,0,0,4,5,0,0,0,0,5,0,3,0,0,0,0,0,0,0,5,0,0,0,0,0,0,1 | 0,4,0,7,4,3,0,0,0,0,0,0,8,0,0,0,0,0,3,0,0,0,6,0,0,0,0,7,0,0,0,5,0,2,0,0,0,3,0,0 | 0,0,0,0,5,0,0,0,0,0,0,0,0,14,3,0,0,0,0,0,0,0,0,4,0,0,5,0,4,0,5,0,0,0,0,0,4,0,0,0 | 0,3,0,4,0,6,0,0,0,0,0,0,0,0,4,0,0,0,0,1,2,0,0,0,0,0,0,0,0,0,1,0,0,0,0,0,0,0,0,1 | 0,0,3,0,0,0,0,0,5,0,0,0,0,0,0,0,0,0,0,0,0,0,7,1,0,0,0,0,0,0,0,0,8,0,3,0,0,0,0,0 | 0,0,0,0,5,0,0,1,0,0,0,0,0,0,0,0,0,0,0,1,0,0,0,3,8,1,4,0,0,0,0,0,0,0,0,0,0,0,0,0 | 0,3,0,0,0,0,0,0,0,4,0,0,0,0,0,0,0,0,0,0,0,0,0,0,0,0,0,1,4,0,0,0,0,0,0,1,5,0,0,0 | 0,0,0,0,0,0,0,0,0,0,0,6,0,0,0,5,0,0,0,0,0,0,5,0,0,0,0,3,2,0,0,0,0,0,0,0,3,0,3,0 | 0,0,3,3,0,6,0,0,0,0,0,0,1,0,0,0,0,0,0,0,5,5,0,0,0,0,4,0,0,0,3,0,0,0,0,0,0,0,0,0 | 0,4,3,4,2,0,0,0,0,0,0,0,0,0,5,0,2,0,0,0,0,0,0,0,6,0,0,0,4,0,0,0,0,0,2,0,0,0,0,0 | 0,0,0,0,0,0,0,0,0,4,0,7,0,0,0,0,0,0,4,0,0,0,0,0,0,0,0,5,11,0,0,0,0,0,0,4,3,0,0,0 | 0,0,0,4,0,2,0,1,0,8,0,0,0,0,0,0,1,0,0,3,0,0,0,0,0,0,0,0,0,0,0,0,0,0,0,0,0,0,0,8 | 0,0,0,1,0,3,0,0,0,1,0,0,0,0,0,0,0,0,0,0,10,0,0,0,0,0,0,0,0,0,1,0,0,0,0,0,0,0,0,0 | 0,0,0,0,6,0,0,0,0,5,0,0,0,0,0,14,0,0,0,0,0,0,0,0,0,0,0,4,2,0,0,0,0,0,1,0,1,0,0,3 | 0,0,0,0,0,0,0,9,0,0,0,3,0,0,0,0,0,0,0,0,0,0,0,0,0,0,0,0,0,0,2,1,5,8,0,0,0,0,0,3 | 8,0,0,1,0,0,0,0,5,0,0,0,0,0,3,0,1,0,0,1,0,0,0,0,0,0,0,0,0,0,4,0,0,6,0,7,0,0,1,0 | 0,0,0,0,0,0,0,0,3,0,1,0,0,0,0,0,0,0,0,0,0,0,3,8,3,0,0,0,0,0,0,0,0,0,1,0,4,0,0,0 | 0,0,0,0,3,2,0,0,0,0,0,0,0,0,0,0,0,0,0,0,0,0,0,3,0,0,0,0,0,0,0,0,0,0,2,0,0,0,0,0 | 0,0,0,0,0,8,0,0,0,0,2,3,0,0,0,0,0,3,0,0,0,0,1,5,0,0,0,0,0,0,0,0,0,0,0,0,0,0,0,2 | 0,0,0,0,0,5,0,0,0,0,0,0,0,8,0,1,0,6,0,0,0,0,0,1,8,0,0,3,1,0,0,0,0,0,0,4,1,0,5,0 | 0,15,0,0,0,0,0,0,4,0,3,0,0,0,0,0,0,0,0,0,0,0,0,4,0,2,0,0,0,0,0,0,0,0,8,0,0,0,0,0 | 0,0,0,0,0,0,0,0,0,0,2,0,4,0,0,0,0,0,0,0,5,0,0,1,0,0,0,0,0,0,0,0,0,0,0,0,0,0,0,0 | 0,0,0,0,0,0,0,0,13,0,0,0,0,0,0,0,0,3,7,6,0,0,5,0,5,0,0,0,0,0,0,0,5,0,0,0,6,0,0,5 | 0,0,0,8,0,0,1,0,0,0,0,0,0,2,9,0,0,0,0,5,0,0,0,14,1,0,0,0,1,0,0,0,0,0,14,2,0,0,1,0 | 0,0,5,0,2,0,0,0,0,8,0,0,3,0,0,7,0,0,0,0,1,4,0,0,0,0,0,0,0,3,0,0,0,0,4,0,0,0,0,0 | 0,0,0,0,0,0,0,0,0,0,2,2,0,0,0,0,0,3,0,0,0,0,2,0,15,0,0,0,0,0,8,0,15,6,3,0,0,0,0,3 | 0,0,0,0,0,0,0,2,0,0,0,3,0,0,0,0,0,0,0,0,0,0,1,0,0,0,0,0,0,0,0,0,1,0,0,0,0,0,0,4 | 0,0,0,0,0,0,1,0,0,0,0,0,0,0,0,4,0,0,0,0,0,0,0,0,6,0,0,0,2,0,0,0,0,0,8,8,0,0,1,3 | 3,0,0,1,0,5,0,0,0,0,0,0,0,2,0,0,0,0,3,0,0,0,0,6,12,0,0,0,0,3,0,3,0,0,0,0,7,0,0,4 | 0,0,2,3,4,0,0,0,0,0,0,0,4,0,0,0,0,0,0,0,2,0,0,0,8,0,0,0,0,0,0,0,0,0,1,0,0,0,0,2 | 0,5,0,4,0,0,0,0,0,0,0,0,0,0,2,0,5,0,0,3,0,0,0,0,0,5,0,0,4,0,0,4,8,0,0,0,0,0,0,0 | 3,0,0,0,0,3,0,0,0,0,0,0,0,0,0,0,0,0,5,0,0,0,0,6,0,0,0,8,0,0,0,1,0,0,0,0,0,5,0,0 | 3,4,0,0,0,1,0,0,1,0,2,0,0,4,0,0,0,0,0,0,2,1,0,0,0,0,0,0,0,2,0,0,0,1,0,0,3,0,0,0 | 0,0,0,0,0,0,0,5,0,0,4,0,0,0,0,0,0,0,0,0,6,2,0,0,4,0,0,0,0,0,0,0,0,0,0,0,0,0,0,0 | 0,2,8,2,0,2,4,0,0,4,0,0,0,0,0,5,0,0,0,0,0,0,0,0,0,0,0,0,0,0,0,0,0,8,0,4,4,0,4,8 | 3,0,0,2,0,0,0,0,3,5,0,0,0,0,0,0,0,0,0,2,0,0,0,10,0,0,6,0,0,3,0,0,0,0,0,6,0,0,0,0 | 0,5,3,0,3,0,0,0,0,0,0,0,4,0,0,0,0,0,5,0,0,3,0,3,1,0,0,0,0,0,1,0,0,0,0,0,8,0,0,0 | 0,0,0,0,0,5,0,0,0,0,6,0,0,0,0,3,0,0,0,0,0,0,0,0,0,0,3,0,5,3,0,1,0,0,0,0,0,2,0,9 | 0,0,0,0,0,1,0,0,0,1,0,0,0,0,0,0,0,0,0,0,2,0,0,0,0,0,0,5,3,0,0,0,0,0,0,0,3,0,0,0 | 0,0,0,0,0,2,0,0,0,2,0,0,0,0,7,0,0,0,0,0,0,0,2,0,0,0,0,0,0,0,0,0,0,0,0,0,0,2,0,0 | 0,5,4,0,4,0,0,0,0,0,0,0,0,0,0,0,0,1,0,8,0,0,0,0,1,6,4,0,0,0,0,0,6,0,5,0,0,0,0,0 | 0,0,0,0,0,0,0,0,5,0,0,4,0,0,0,0,0,0,0,0,2,0,0,0,8,8,1,0,0,0,0,0,0,0,12,0,5,0,0,0 | 0,0,0,0,0,0,0,0,0,0,0,4,0,1,5,0,0,2,0,0,0,2,0,0,3,0,0,0,0,0,0,0,5,0,0,0,0,0,0,0 | 0,0,0,0,0,0,0,0,5,3,0,0,0,5,0,1,0,0,4,0,0,0,0,0,0,0,0,5,0,0,0,0,0,0,2,0,0,0,3,0 | 0,0,0,0,3,0,5,0,0,0,0,0,0,0,0,0,0,0,0,4,0,2,0,0,4,0,5,0,0,0,0,0,0,0,0,0,0,0,0,0 | 0,0,0,0,0,0,1,0,0,0,0,0,0,0,0,0,0,5,0,0,0,0,0,0,0,0,0,0,0,0,0,0,0,0,0,4,1,0,2,0 | 0,0,0,0,0,4,2,0,0,0,0,0,0,0,0,4,0,0,0,0,0,0,0,0,0,0,0,4,5,0,0,0,0,0,0,0,0,0,4,0 | 0,0,0,0,3,0,0,0,0,0,0,0,0,0,6,0,0,0,0,8,0,0,0,4,0,0,5,0,0,0,0,0,0,0,3,0,0,0,0,0 | 12,0,0,0,0,0,0,0,0,7,0,0,0,4,0,0,0,0,0,0,0,0,0,0,0,0,0,0,0,5,1,0,3,3,0,0,3,1,0,0 | 0,2,0,0,0,0,2,0,3,0,0,0,0,0,3,0,0,0,0,2,0,0,0,3,0,0,0,0,0,0,2,0,0,0,0,0,0,0,3,0 | 0,0,0,0,0,0,7,4,0,5,0,0,0,0,0,8,0,0,0,0,0,0,1,0,1,0,6,7,0,0,1,0,0,8,0,0,0,0,0,0 | 0,0,0,1,0,0,0,0,2,0,0,0,0,0,3,0,1,0,0,0,0,0,0,0,0,0,0,0,0,0,1,0,0,0,0,0,0,0,0,0 | 0,8,0,0,0,0,0,0,0,0,0,0,5,0,0,0,0,0,0,0,2,4,6,5,0,3,5,0,0,3,0,7,0,0,0,7,0,0,0,5 | 0,0,0,1,0,13,0,0,1,0,0,0,0,0,0,0,0,0,0,0,0,0,0,0,0,1,0,0,0,0,3,0,0,0,0,0,0,0,0,0 | 0,0,15,0,0,0,0,0,0,0,3,0,0,0,0,0,0,5,0,0,0,0,0,0,0,0,0,0,0,0,0,0,0,0,0,0,0,0,0,0 | 6,5,0,4,0,0,11,0,2,0,0,0,8,0,0,0,0,4,0,0,0,0,0,0,0,0,0,0,0,0,0,3,2,0,0,0,0,0,0,0 | 0,0,0,0,0,0,0,0,1,0,6,0,0,0,0,0,1,0,0,1,0,4,0,0,0,2,0,0,0,0,1,0,0,0,0,0,6,0,0,0 | 2,1,0,4,5,0,0,0,1,0,4,4,0,0,0,0,2,0,0,2,0,0,0,0,0,0,0,0,0,0,2,0,0,0,0,0,8,0,0,0 | 0,0,0,0,0,0,0,0,0,0,1,0,0,0,7,7,0,0,0,0,0,0,0,0,0,0,0,0,0,0,0,0,0,0,0,0,0,0,0,0 | 3,0,0,0,0,5,3,0,0,5,0,0,0,5,0,0,0,6,2,0,0,0,0,0,0,0,0,0,3,0,0,1,0,0,0,0,0,5,0,0 | 3,3,0,0,0,4,0,0,0,0,0,0,0,4,0,0,0,0,5,0,0,0,0,0,0,0,0,0,0,0,0,0,0,3,0,0,0,5,0,0 | 6,2,0,1,0,0,0,0,0,0,0,0,0,6,1,0,5,0,0,0,0,0,0,0,11,5,0,0,0,0,2,0,0,4,2,0,0,5,3,0 | 0,13,0,0,0,0,0,0,0,0,0,0,0,0,5,1,0,0,0,3,0,0,3,6,0,0,0,11,0,3,0,0,0,0,0,0,0,0,3,0 | 0,1,0,0,0,4,0,5,0,0,1,0,0,0,0,0,0,0,0,0,0,0,0,0,0,0,0,0,0,1,0,3,0,5,0,0,0,5,0,0 | 4,0,0,0,0,0,0,0,4,0,0,1,0,0,0,0,0,4,1,0,4,6,0,0,0,0,0,0,0,0,0,1,0,0,2,0,0,5,0,0 | 0,0,0,0,0,5,0,0,0,0,0,0,6,0,0,3,0,0,0,0,0,0,0,0,0,0,0,0,0,0,0,0,0,0,0,0,0,0,0,6 | 0,0,0,0,0,0,0,2,0,0,0,2,0,0,0,0,0,0,0,6,0,0,0,0,0,7,0,6,0,0,0,0,0,0,4,0,11,0,0,9 |];
